73 1 9
61 1 8
71 1 8
31 1 8
93 1 8
70 1 7
97 1 7
32 1 6
17 1 6
72 1 6
41 1 4
89 2 8
52 2 7
43 3 9
6 2 6
76 3 9
2 1 3
19 2 6
94 2 6
42 1 3
48 3 8
87 3 8
29 2 5
36 2 5
74 3 7
51 2 4
55 1 2
68 5 9
98 4 7
50 3 5
69 3 5
14 6 9
62 6 9
95 2 3
4 6 9
35 4 6
12 6 8
79 6 8
10 6 8
90 7 9
82 7 9
67 4 5
38 5 6
57 6 7
34 6 7
58 5 5
8 7 7
84 6 6
33 4 4
88 9 9
16 7 7
63 7 6
77 6 5
24 9 7
21 9 7
7 4 3
49 4 3
85 4 3
23 7 5
64 3 2
65 9 6
44 6 4
30 6 4
54 9 6
80 8 5
266
406